Minimize
z0 + z1 + z2 + z3 + z4 + z5 + z6 + z7 + z8 + z9 + z10 + z11 + z12 + z13 + z14 + z15 + z16 + z17 + z18

Subject To
z10 + z11 + z12 >= 1
z11 + z15 >= 1
z10 + z11 + z12 + z14 + z15 >= 1
z4 + z11 + z12 >= 1
z11 + z12 >= 1
z4 + z11 + z12 + z14 + z15 >= 1
z11 + z12 + z14 >= 1
z7 + z17 >= 1
z7 + z10 + z17 >= 1
z10 + z11 + z14 >= 1
z4 + z7 + z17 >= 1
z4 + z11 + z14 >= 1
z11 + z14 >= 1
z8 + z9 + z17 >= 1
z8 + z9 + z10 + z17 >= 1
z8 + z15 >= 1
z8 + z10 + z15 >= 1
z4 + z8 + z9 + z17 >= 1
z4 + z8 + z15 >= 1
z7 + z9 + z17 + z18 >= 1
z7 + z9 + z10 + z17 + z18 >= 1
z10 >= 1
z4 + z7 + z9 + z17 + z18 >= 1
z17 + z18 >= 1
z4 >= 1
z1 >= 1
z1 + z15 >= 1
z0 + z12 >= 1
z0 + z11 + z12 + z14 >= 1
z1 + z7 >= 1
z1 >= 1
z0 >= 1
z0 + z14 >= 1
z1 + z8 + z9 >= 1
z1 + z8 + z15 >= 1
z0 >= 1
z0 >= 1
z1 + z7 + z9 + z17 >= 1
z1 >= 1
z0 >= 1
z0 >= 1


Binary
z0
z1
z2
z3
z4
z5
z6
z7
z8
z9
z10
z11
z12
z13
z14
z15
z16
z17
z18
